22
2 0 9
3 0 14
3 1 3
4 0 15
4 2 4
5 0 10
5 1 15
5 2 16
5 3 16
5 4 9
6 0 3
6 1 17
6 2 4
6 3 2
7 4 3
7 5 15
7 6 10
8 0 15
8 4 6
9 2 6
9 3 3
9 4 5
9 5 10
9 6 6
9 8 10
10 0 8
10 1 11
10 2 7
10 4 12
10 8 1
11 1 3
11 3 6
11 4 16
11 5 15
11 7 9
11 8 14
11 10 16
12 2 17
12 4 12
12 6 11
12 9 8
12 11 3
13 1 16
13 2 4
13 3 4
13 5 1
13 9 10
13 10 10
13 11 1
14 1 11
14 4 15
14 6 8
14 7 8
14 8 7
14 11 4
14 13 2
15 1 12
15 2 4
15 10 1
15 11 4
15 12 5
15 14 4
16 0 12
16 2 8
16 3 1
16 6 6
16 7 9
16 8 7
16 9 10
16 10 11
16 11 3
16 15 14
17 2 6
17 4 12
17 5 15
17 6 5
17 7 8
17 9 1
17 12 2
17 13 9
18 0 6
18 2 13
18 3 2
18 4 2
18 8 7
18 9 12
18 12 17
18 14 17
18 15 17
18 16 6
19 0 2
19 1 13
19 3 16
19 10 4
19 11 8
19 14 6
19 15 13
19 17 16
20 0 6
20 1 14
20 4 5
20 5 4
20 7 2
20 10 6
20 12 5
20 16 14
20 17 10
20 18 2
20 19 11
21 2 8
21 3 5
21 5 8
21 7 13
21 9 5
21 15 1
21 16 10
21 17 7
